ilp_joint_2/output/diffusion_ilp.lp
Maximize
  3.3198110859666841e-04 Z_50_1_0 + 0.00264033725880564 Z_50_1_1
   + 0.4753970005992837 Z_50_1_2 + 0.00263525324034997 Z_50_1_3
   + 3.3198110859666841e-04 Z_50_2_0 + 0.00264033725880564 Z_50_2_1
   + 0.4753970005992837 Z_50_2_2 + 0.00263525324034997 Z_50_2_3
Subject To
 constraint1_501: Z_50_1_0 + Z_50_1_1 + Z_50_1_2 + Z_50_1_3 <= 1
 constraint1_502: Z_50_2_0 + Z_50_2_1 + Z_50_2_2 + Z_50_2_3 <= 1
 constraint2_500: Z_50_1_0 + Z_50_2_0 <= 1
 constraint2_501: Z_50_1_1 + Z_50_2_1 <= 1
 constraint2_502: Z_50_1_2 + Z_50_2_2 <= 1
 constraint2_503: Z_50_1_3 + Z_50_2_3 <= 1
Bounds
Binaries
 Z_50_1_0 Z_50_1_1 Z_50_1_2 Z_50_1_3 Z_50_2_0 Z_50_2_1 Z_50_2_2 Z_50_2_3
End
