ilp_joint_2/output/diffusion_ilp.sol
# Solution for model diffusion_srl_ilp
# Objective value = 4.7803733785808933e-01
Z_50_1_0 0
Z_50_1_1 0
Z_50_1_2 1
Z_50_1_3 0
Z_50_2_0 0
Z_50_2_1 1
Z_50_2_2 0
Z_50_2_3 0
